(set-info :smt-lib-version 2.6)
(set-info :category "crafted")
(set-logic QF_FFA)
(define-sort FF0 () (_ FiniteField 52435875175126190479447740508185965837690552500527637822603658699938581184513))
(declare-fun _37_alt () FF0)
(declare-fun _36_alt () FF0)
(declare-fun _12_alt () FF0)
(declare-fun _30_alt () FF0)
(declare-fun _28_alt () FF0)
(declare-fun _35_alt () FF0)
(declare-fun _34_alt () FF0)
(declare-fun _33_alt () FF0)
(declare-fun _10_alt () FF0)
(declare-fun _32_alt () FF0)
(declare-fun _1_alt () FF0)
(declare-fun _31_alt () FF0)
(declare-fun _2_alt () FF0)
(declare-fun _26_alt () FF0)
(declare-fun _25_alt () FF0)
(declare-fun _14_alt () FF0)
(declare-fun _21_alt () FF0)
(declare-fun _20_alt () FF0)
(declare-fun _0_alt () FF0)
(declare-fun _19_alt () FF0)
(declare-fun _18_alt () FF0)
(declare-fun _17_alt () FF0)
(declare-fun _4_alt () FF0)
(declare-fun _9_alt () FF0)
(declare-fun _8_alt () FF0)
(declare-fun _7_alt () FF0)
(declare-fun _6_alt () FF0)
(declare-fun _5_alt () FF0)
(declare-fun _3_alt () FF0)
(declare-fun _37 () FF0)
(declare-fun _36 () FF0)
(declare-fun _12 () FF0)
(declare-fun _30 () FF0)
(declare-fun _28 () FF0)
(declare-fun _35 () FF0)
(declare-fun _34 () FF0)
(declare-fun _33 () FF0)
(declare-fun _10 () FF0)
(declare-fun _32 () FF0)
(declare-fun _1 () FF0)
(declare-fun _31 () FF0)
(declare-fun _2 () FF0)
(declare-fun _26 () FF0)
(declare-fun _25 () FF0)
(declare-fun _14 () FF0)
(declare-fun _21 () FF0)
(declare-fun _20 () FF0)
(declare-fun _0 () FF0)
(declare-fun _19 () FF0)
(declare-fun _18 () FF0)
(declare-fun _17 () FF0)
(declare-fun _4 () FF0)
(declare-fun _9 () FF0)
(declare-fun _8 () FF0)
(declare-fun _7 () FF0)
(declare-fun _6 () FF0)
(declare-fun _5 () FF0)
(declare-fun _3 () FF0)
(declare-fun out_alt () FF0)
(declare-fun out () FF0)
(assert 
  (let ((let0 (as ff1 FF0)))
  (let ((let1 (as ff52435875175126190479447740508185965837690552500527637822603658699938581184512 FF0)))
  (let ((let2 _37_alt))
  (let ((let3 (ff.mul let2 let1)))
  (let ((let4 _36_alt))
  (let ((let5 _12_alt))
  (let ((let6 (ff.mul let5 let1)))
  (let ((let7 (ff.add let6 let4 let3 let0)))
  (let ((let8 (ff.add let6 let0)))
  (let ((let9 (ff.mul let4 let8)))
  (let ((let10 (= let9 let7)))
  (let ((let11 (ff.mul let4 let1)))
  (let ((let12 _30_alt))
  (let ((let13 _28_alt))
  (let ((let14 (ff.mul let13 let1)))
  (let ((let15 (ff.add let14 let12 let11 let0)))
  (let ((let16 (ff.add let14 let0)))
  (let ((let17 (ff.mul let12 let16)))
  (let ((let18 (= let17 let15)))
  (let ((let19 _35_alt))
  (let ((let20 (ff.mul let19 let1)))
  (let ((let21 _34_alt))
  (let ((let22 (ff.add let12 let21 let20)))
  (let ((let23 (ff.mul let21 let12)))
  (let ((let24 (= let23 let22)))
  (let ((let25 (ff.mul let21 let1)))
  (let ((let26 _33_alt))
  (let ((let27 _10_alt))
  (let ((let28 (ff.add let27 let26 let25)))
  (let ((let29 (ff.mul let26 let27)))
  (let ((let30 (= let29 let28)))
  (let ((let31 (ff.mul let26 let1)))
  (let ((let32 _32_alt))
  (let ((let33 _1_alt))
  (let ((let34 (ff.mul let33 let1)))
  (let ((let35 (ff.add let34 let32 let31 let0)))
  (let ((let36 (ff.add let34 let0)))
  (let ((let37 (ff.mul let32 let36)))
  (let ((let38 (= let37 let35)))
  (let ((let39 (ff.mul let32 let1)))
  (let ((let40 _31_alt))
  (let ((let41 (ff.add let5 let40 let39)))
  (let ((let42 (ff.mul let40 let5)))
  (let ((let43 (= let42 let41)))
  (let ((let44 (ff.mul let40 let1)))
  (let ((let45 (ff.mul let27 let1)))
  (let ((let46 _2_alt))
  (let ((let47 (ff.add let46 let45 let44 let0)))
  (let ((let48 (ff.add let45 let0)))
  (let ((let49 (ff.mul let46 let48)))
  (let ((let50 (= let49 let47)))
  (let ((let51 (ff.mul let12 let1)))
  (let ((let52 (as ff2 FF0)))
  (let ((let53 (ff.mul let27 let52)))
  (let ((let54 (ff.add let53 let51)))
  (let ((let55 (ff.mul let27 let27)))
  (let ((let56 (= let55 let54)))
  (let ((let57 _26_alt))
  (let ((let58 _25_alt))
  (let ((let59 _14_alt))
  (let ((let60 (ff.mul let59 let1)))
  (let ((let61 (ff.add let60 let58 let57)))
  (let ((let62 (ff.mul let61 let61)))
  (let ((let63 (= let62 let13)))
  (let ((let64 (ff.add let60 let0)))
  (let ((let65 (ff.mul let64 let36)))
  (let ((let66 (= let65 let57)))
  (let ((let67 _21_alt))
  (let ((let68 (ff.mul let59 let67)))
  (let ((let69 (= let68 let58)))
  (let ((let70 (ff.mul let67 let1)))
  (let ((let71 _20_alt))
  (let ((let72 _0_alt))
  (let ((let73 (ff.add let72 let71 let70)))
  (let ((let74 (ff.mul let71 let72)))
  (let ((let75 (= let74 let73)))
  (let ((let76 (ff.mul let71 let1)))
  (let ((let77 _19_alt))
  (let ((let78 (ff.add let27 let77 let76)))
  (let ((let79 (ff.mul let77 let27)))
  (let ((let80 (= let79 let78)))
  (let ((let81 (ff.mul let77 let1)))
  (let ((let82 _18_alt))
  (let ((let83 (ff.add let27 let82 let81)))
  (let ((let84 (ff.mul let82 let27)))
  (let ((let85 (= let84 let83)))
  (let ((let86 (ff.mul let82 let1)))
  (let ((let87 _17_alt))
  (let ((let88 (ff.add let59 let87 let86)))
  (let ((let89 (ff.mul let87 let59)))
  (let ((let90 (= let89 let88)))
  (let ((let91 (ff.mul let87 let1)))
  (let ((let92 (ff.add let27 let59 let91)))
  (let ((let93 (ff.mul let59 let27)))
  (let ((let94 (= let93 let92)))
  (let ((let95 (= let55 let59)))
  (let ((let96 _4_alt))
  (let ((let97 (ff.mul let96 let1)))
  (let ((let98 (ff.add let97 let45 let6 let52)))
  (let ((let99 (ff.add let97 let0)))
  (let ((let100 (ff.mul let99 let48)))
  (let ((let101 (= let100 let98)))
  (let ((let102 _9_alt))
  (let ((let103 (ff.add let96 let102 let45)))
  (let ((let104 (ff.mul let102 let96)))
  (let ((let105 (= let104 let103)))
  (let ((let106 (ff.mul let102 let1)))
  (let ((let107 _8_alt))
  (let ((let108 (ff.add let46 let107 let106)))
  (let ((let109 (ff.mul let107 let46)))
  (let ((let110 (= let109 let108)))
  (let ((let111 (ff.mul let107 let1)))
  (let ((let112 _7_alt))
  (let ((let113 (ff.add let33 let112 let111)))
  (let ((let114 (ff.mul let112 let33)))
  (let ((let115 (= let114 let113)))
  (let ((let116 (ff.mul let112 let1)))
  (let ((let117 _6_alt))
  (let ((let118 (ff.add let72 let117 let116)))
  (let ((let119 (ff.mul let117 let72)))
  (let ((let120 (= let119 let118)))
  (let ((let121 (ff.mul let117 let1)))
  (let ((let122 _5_alt))
  (let ((let123 (ff.add let96 let122 let121)))
  (let ((let124 (ff.mul let122 let96)))
  (let ((let125 (= let124 let123)))
  (let ((let126 (ff.mul let122 let1)))
  (let ((let127 (ff.add let33 let96 let126)))
  (let ((let128 (ff.mul let33 let96)))
  (let ((let129 (= let128 let127)))
  (let ((let130 _3_alt))
  (let ((let131 (ff.add let46 let130 let97)))
  (let ((let132 (ff.mul let130 let46)))
  (let ((let133 (= let132 let131)))
  (let ((let134 (ff.mul let130 let1)))
  (let ((let135 (ff.add let72 let46 let134)))
  (let ((let136 (ff.mul let46 let72)))
  (let ((let137 (= let136 let135)))
  (let ((let138 (ff.mul let46 let1)))
  (let ((let139 (ff.add let72 let33 let138)))
  (let ((let140 (ff.mul let72 let33)))
  (let ((let141 (= let140 let139)))
  (let ((let142 (ff.mul let33 let33)))
  (let ((let143 (= let142 let33)))
  (let ((let144 (ff.mul let72 let72)))
  (let ((let145 (= let144 let72)))
  (let ((let146 (and let145 let143 let141 let137 let133 let129 let125 let120 let115 let110 let105 let101 let95 let94 let90 let85 let80 let75 let69 let66 let63 let56 let50 let43 let38 let30 let24 let18 let10)))
  (let ((let147 _37))
  (let ((let148 (ff.mul let147 let1)))
  (let ((let149 _36))
  (let ((let150 _12))
  (let ((let151 (ff.mul let150 let1)))
  (let ((let152 (ff.add let151 let149 let148 let0)))
  (let ((let153 (ff.add let151 let0)))
  (let ((let154 (ff.mul let149 let153)))
  (let ((let155 (= let154 let152)))
  (let ((let156 (ff.mul let149 let1)))
  (let ((let157 _30))
  (let ((let158 _28))
  (let ((let159 (ff.mul let158 let1)))
  (let ((let160 (ff.add let159 let157 let156 let0)))
  (let ((let161 (ff.add let159 let0)))
  (let ((let162 (ff.mul let157 let161)))
  (let ((let163 (= let162 let160)))
  (let ((let164 _35))
  (let ((let165 (ff.mul let164 let1)))
  (let ((let166 _34))
  (let ((let167 (ff.add let157 let166 let165)))
  (let ((let168 (ff.mul let166 let157)))
  (let ((let169 (= let168 let167)))
  (let ((let170 (ff.mul let166 let1)))
  (let ((let171 _33))
  (let ((let172 _10))
  (let ((let173 (ff.add let172 let171 let170)))
  (let ((let174 (ff.mul let171 let172)))
  (let ((let175 (= let174 let173)))
  (let ((let176 (ff.mul let171 let1)))
  (let ((let177 _32))
  (let ((let178 _1))
  (let ((let179 (ff.mul let178 let1)))
  (let ((let180 (ff.add let179 let177 let176 let0)))
  (let ((let181 (ff.add let179 let0)))
  (let ((let182 (ff.mul let177 let181)))
  (let ((let183 (= let182 let180)))
  (let ((let184 (ff.mul let177 let1)))
  (let ((let185 _31))
  (let ((let186 (ff.add let150 let185 let184)))
  (let ((let187 (ff.mul let185 let150)))
  (let ((let188 (= let187 let186)))
  (let ((let189 (ff.mul let185 let1)))
  (let ((let190 (ff.mul let172 let1)))
  (let ((let191 _2))
  (let ((let192 (ff.add let191 let190 let189 let0)))
  (let ((let193 (ff.add let190 let0)))
  (let ((let194 (ff.mul let191 let193)))
  (let ((let195 (= let194 let192)))
  (let ((let196 (ff.mul let157 let1)))
  (let ((let197 (ff.mul let172 let52)))
  (let ((let198 (ff.add let197 let196)))
  (let ((let199 (ff.mul let172 let172)))
  (let ((let200 (= let199 let198)))
  (let ((let201 _26))
  (let ((let202 _25))
  (let ((let203 _14))
  (let ((let204 (ff.mul let203 let1)))
  (let ((let205 (ff.add let204 let202 let201)))
  (let ((let206 (ff.mul let205 let205)))
  (let ((let207 (= let206 let158)))
  (let ((let208 (ff.add let204 let0)))
  (let ((let209 (ff.mul let208 let181)))
  (let ((let210 (= let209 let201)))
  (let ((let211 _21))
  (let ((let212 (ff.mul let203 let211)))
  (let ((let213 (= let212 let202)))
  (let ((let214 (ff.mul let211 let1)))
  (let ((let215 _20))
  (let ((let216 _0))
  (let ((let217 (ff.add let216 let215 let214)))
  (let ((let218 (ff.mul let215 let216)))
  (let ((let219 (= let218 let217)))
  (let ((let220 (ff.mul let215 let1)))
  (let ((let221 _19))
  (let ((let222 (ff.add let172 let221 let220)))
  (let ((let223 (ff.mul let221 let172)))
  (let ((let224 (= let223 let222)))
  (let ((let225 (ff.mul let221 let1)))
  (let ((let226 _18))
  (let ((let227 (ff.add let172 let226 let225)))
  (let ((let228 (ff.mul let226 let172)))
  (let ((let229 (= let228 let227)))
  (let ((let230 (ff.mul let226 let1)))
  (let ((let231 _17))
  (let ((let232 (ff.add let203 let231 let230)))
  (let ((let233 (ff.mul let231 let203)))
  (let ((let234 (= let233 let232)))
  (let ((let235 (ff.mul let231 let1)))
  (let ((let236 (ff.add let172 let203 let235)))
  (let ((let237 (ff.mul let203 let172)))
  (let ((let238 (= let237 let236)))
  (let ((let239 (= let199 let203)))
  (let ((let240 _4))
  (let ((let241 (ff.mul let240 let1)))
  (let ((let242 (ff.add let241 let190 let151 let52)))
  (let ((let243 (ff.add let241 let0)))
  (let ((let244 (ff.mul let243 let193)))
  (let ((let245 (= let244 let242)))
  (let ((let246 _9))
  (let ((let247 (ff.add let240 let246 let190)))
  (let ((let248 (ff.mul let246 let240)))
  (let ((let249 (= let248 let247)))
  (let ((let250 (ff.mul let246 let1)))
  (let ((let251 _8))
  (let ((let252 (ff.add let191 let251 let250)))
  (let ((let253 (ff.mul let251 let191)))
  (let ((let254 (= let253 let252)))
  (let ((let255 (ff.mul let251 let1)))
  (let ((let256 _7))
  (let ((let257 (ff.add let178 let256 let255)))
  (let ((let258 (ff.mul let256 let178)))
  (let ((let259 (= let258 let257)))
  (let ((let260 (ff.mul let256 let1)))
  (let ((let261 _6))
  (let ((let262 (ff.add let216 let261 let260)))
  (let ((let263 (ff.mul let261 let216)))
  (let ((let264 (= let263 let262)))
  (let ((let265 (ff.mul let261 let1)))
  (let ((let266 _5))
  (let ((let267 (ff.add let240 let266 let265)))
  (let ((let268 (ff.mul let266 let240)))
  (let ((let269 (= let268 let267)))
  (let ((let270 (ff.mul let266 let1)))
  (let ((let271 (ff.add let178 let240 let270)))
  (let ((let272 (ff.mul let178 let240)))
  (let ((let273 (= let272 let271)))
  (let ((let274 _3))
  (let ((let275 (ff.add let191 let274 let241)))
  (let ((let276 (ff.mul let274 let191)))
  (let ((let277 (= let276 let275)))
  (let ((let278 (ff.mul let274 let1)))
  (let ((let279 (ff.add let216 let191 let278)))
  (let ((let280 (ff.mul let191 let216)))
  (let ((let281 (= let280 let279)))
  (let ((let282 (ff.mul let191 let1)))
  (let ((let283 (ff.add let216 let178 let282)))
  (let ((let284 (ff.mul let216 let178)))
  (let ((let285 (= let284 let283)))
  (let ((let286 (ff.mul let178 let178)))
  (let ((let287 (= let286 let178)))
  (let ((let288 (ff.mul let216 let216)))
  (let ((let289 (= let288 let216)))
  (let ((let290 (and let289 let287 let285 let281 let277 let273 let269 let264 let259 let254 let249 let245 let239 let238 let234 let229 let224 let219 let213 let210 let207 let200 let195 let188 let183 let175 let169 let163 let155)))
  (let ((let291 out_alt))
  (let ((let292 out))
  (let ((let293 (= let292 let291)))
  (let ((let294 (not let293)))
  (let ((let295 (= let178 let33)))
  (let ((let296 (= let216 let72)))
  (let ((let297 (and let296 let295)))
  (let ((let298 (and let297 let294 let290 let146)))
  let298
)))))))))))))))))))))))))))))))))))))))))))))))))))))))))))))))))))))))))))))))))))))))))))))))))))))))))))))))))))))))))))))))))))))))))))))))))))))))))))))))))))))))))))))))))))))))))))))))))))))))))))))))))))))))))))))))))))))))))))))))))))))))))))))))))))))))))))))))))))))))))))))))))))))))))))
)
(check-sat)
